c instance by G2
c solution = 0011000110111110111001100
c Known solution cost is 1313 
p cnf 25 30
w 75 97 66 11 24 13 60 37 67 11 89 59 91 82 19 54 95 36 80 6 88 84 8 32 29
-25 13 -15 0
3 -4 6 0
16 20 -21 0
7 17 6 0
2 -15 -20 0
8 12 20 0
5 -2 -17 0
-9 -1 10 0
5 16 15 0
-9 -22 -16 0
1 16 11 0
-11 9 -4 0
-4 23 16 0
-12 10 -25 0
1 -23 -6 0
-3 1 13 0
-19 -13 4 0
-23 -19 9 0
8 -4 -3 0
-10 -13 -12 0
6 -12 22 0
-17 -13 19 0
18 21 10 0
-4 14 5 0
-7 -17 10 0
-1 16 -11 0
10 16 -24 0
-10 -8 -23 0
-5 -19 -18 0
-15 -22 12 0
